Maximize
F - f1 - f2

Subject to
F - 8y31 - 8y73 - 2y77 - 8y84 - 0y90 - 2y169 - 2y104 - 8y18 - 2y136 - 2y176 - 2y37 - 2y100 - 8y68 - 8y9 - 8y166 - 4y116 - 8y59 - 2y36 - 6y70 = 0
f1 - 0.007099s31 - 0.007099s73 - 0.007099s77 - 0.007099s84 - 0.007099s90 - 0.007099s169 - 0.007099s104 - 0.007099s18 - 0.007099s136 - 0.007099s176 - 0.007099s37 - 0.007099s100 - 0.007099s68 - 0.007099s9 - 0.007099s166 - 0.007099s116 - 0.007099s59 - 0.007099s36 - 0.007099s70  = 0
f2 - 2.69y31 - 3.74y73 - 3.30y77 - 4.33y84 - 3.04y90 - 4.34y169 - 2.04y104 - 2.31y18 - 1.92y136 - 2.74y176 - 1.26y37 - 0.99y100 - 1.95y68 - 1.12y9 - 0.57y166 - 0.90y116 - 1.52y59 - 0.15y36 - 0.06y70 = 0

x109x31x1 + x109x77x1 + x109x90x1 + x109x37x1 + x109x59x1 + x109x36x1 + x109x70x1 
<= 2
x85x37x1 + x85x59x1 + x85x36x1 + x85x70x1 
<= 1
x118x31x1 + x118x90x1 + x118x37x1 + x118x59x1 + x118x36x1 + x118x70x1 
<= 2
x138x31x1 + x138x90x1 + x138x37x1 + x138x59x1 + x138x36x1 + x138x70x1 
<= 1
x90x37x1 + x90x59x1 + x90x36x1 + x90x70x1 
<= 1
x164x31x1 + x164x73x1 + x164x77x1 + x164x90x1 + x164x37x1 + x164x59x1 + x164x36x1 + x164x70x1 
<= 1
x35x31x2 + x35x136x2 + x35x176x2 + x35x37x2 + x35x100x2 + x35x68x2 + x35x9x2 + x35x116x2 
<= 2
x82x31x2 + x82x136x2 + x82x176x2 + x82x37x2 + x82x100x2 + x82x68x2 + x82x9x2 + x82x116x2 
<= 1
x98x136x2 + x98x176x2 + x98x37x2 + x98x100x2 + x98x68x2 + x98x9x2 + x98x116x2 
<= 1
x172x136x2 + x172x176x2 + x172x37x2 + x172x100x2 + x172x68x2 + x172x9x2 + x172x116x2 
<= 2
x85x136x2 + x85x176x2 + x85x37x2 + x85x100x2 + x85x68x2 + x85x9x2 + x85x116x2 
<= 1
x16x31x2 + x16x73x2 + x16x136x2 + x16x176x2 + x16x37x2 + x16x100x2 + x16x68x2 + x16x9x2 + x16x116x2 
<= 1

x119x90x3 + x119x104x3 + x119x18x3 + x119x136x3 + x119x176x3 + x119x100x3 + x119x68x3 + x119x9x3 + x119x166x3 + x119x59x3 + x119x70x3 
<= 2
x82x90x3 + x82x104x3 + x82x18x3 + x82x136x3 + x82x176x3 + x82x100x3 + x82x68x3 + x82x9x3 + x82x166x3 + x82x59x3 + x82x70x3 
<= 1
x98x136x3 + x98x176x3 + x98x100x3 + x98x68x3 + x98x9x3 + x98x166x3 + x98x59x3 + x98x70x3 
<= 1
x138x90x3 + x138x104x3 + x138x18x3 + x138x136x3 + x138x176x3 + x138x100x3 + x138x68x3 + x138x9x3 + x138x166x3 + x138x59x3 + x138x70x3 
<= 1
x90x104x3 + x90x18x3 + x90x136x3 + x90x176x3 + x90x100x3 + x90x68x3 + x90x9x3 + x90x166x3 + x90x59x3 + x90x70x3 
<= 1
x164x90x3 + x164x104x3 + x164x18x3 + x164x136x3 + x164x176x3 + x164x100x3 + x164x68x3 + x164x9x3 + x164x166x3 + x164x59x3 + x164x70x3 
<= 1
x16x90x3 + x16x104x3 + x16x18x3 + x16x136x3 + x16x176x3 + x16x100x3 + x16x68x3 + x16x9x3 + x16x166x3 + x16x59x3 + x16x70x3 
<= 1

x109x31x1 + x118x31x1 + x138x31x1 + x164x31x1 
- x31x0x1
- x31x37x1 - x31x59x1 - x31x36x1 - x31x70x1 
= 0
x35x31x2 + x82x31x2 + x16x31x2 
- x31x0x2
- x31x136x2 - x31x176x2 - x31x37x2 - x31x100x2 - x31x68x2 - x31x9x2 - x31x116x2 
= 0


x164x73x1 
- x73x0x1
- x73x37x1 - x73x59x1 - x73x36x1 - x73x70x1 
= 0
x16x73x2 
- x73x0x2
- x73x136x2 - x73x176x2 - x73x37x2 - x73x100x2 - x73x68x2 - x73x9x2 - x73x116x2 
= 0


x109x77x1 + x164x77x1 
- x77x0x1
- x77x37x1 - x77x59x1 - x77x36x1 - x77x70x1 
= 0





- x84x176x2 - x84x37x2 - x84x100x2 - x84x68x2 - x84x9x2 - x84x116x2 
= 0


x109x90x1 + x118x90x1 + x138x90x1 + x164x90x1 
- x90x0x1
- x90x37x1 - x90x59x1 - x90x36x1 - x90x70x1 
= 0

x119x90x3 + x82x90x3 + x138x90x3 + x164x90x3 + x16x90x3 
- x90x0x3
- x90x18x3 - x90x136x3 - x90x176x3 - x90x100x3 - x90x68x3 - x90x9x3 - x90x166x3 - x90x59x3 - x90x70x3 
= 0


- x169x37x1 - x169x59x1 - x169x36x1 - x169x70x1 
= 0





x119x104x3 + x82x104x3 + x138x104x3 + x90x104x3 + x164x104x3 + x16x104x3 
- x104x0x3
- x104x18x3 - x104x136x3 - x104x176x3 - x104x100x3 - x104x68x3 - x104x9x3 - x104x166x3 - x104x59x3 - x104x70x3 
= 0



x119x18x3 + x82x18x3 + x138x18x3 + x90x18x3 + x164x18x3 + x16x18x3 + x90x18x3 + x104x18x3 
- x18x0x3
- x18x176x3 - x18x100x3 - x18x68x3 - x18x9x3 - x18x166x3 - x18x59x3 - x18x70x3 
= 0


x35x136x2 + x82x136x2 + x98x136x2 + x172x136x2 + x85x136x2 + x16x136x2 + x31x136x2 + x73x136x2 
- x136x0x2
- x136x37x2 - x136x100x2 - x136x68x2 - x136x9x2 - x136x116x2 
= 0
x119x136x3 + x82x136x3 + x98x136x3 + x138x136x3 + x90x136x3 + x164x136x3 + x16x136x3 + x90x136x3 + x104x136x3 
- x136x0x3
- x136x100x3 - x136x68x3 - x136x9x3 - x136x166x3 - x136x59x3 - x136x70x3 
= 0


x35x176x2 + x82x176x2 + x98x176x2 + x172x176x2 + x85x176x2 + x16x176x2 + x31x176x2 + x73x176x2 + x84x176x2 
- x176x0x2
- x176x100x2 - x176x68x2 - x176x9x2 - x176x116x2 
= 0
x119x176x3 + x82x176x3 + x98x176x3 + x138x176x3 + x90x176x3 + x164x176x3 + x16x176x3 + x90x176x3 + x104x176x3 + x18x176x3 
- x176x0x3
- x176x100x3 - x176x68x3 - x176x9x3 - x176x166x3 - x176x59x3 - x176x70x3 
= 0

x109x37x1 + x85x37x1 + x118x37x1 + x138x37x1 + x90x37x1 + x164x37x1 + x31x37x1 + x73x37x1 + x77x37x1 + x90x37x1 + x169x37x1 
- x37x0x1
- x37x59x1 - x37x36x1 - x37x70x1 
= 0
x35x37x2 + x82x37x2 + x98x37x2 + x172x37x2 + x85x37x2 + x16x37x2 + x31x37x2 + x73x37x2 + x84x37x2 + x136x37x2 
- x37x0x2
- x37x100x2 - x37x9x2 - x37x116x2 
= 0



x35x100x2 + x82x100x2 + x98x100x2 + x172x100x2 + x85x100x2 + x16x100x2 + x31x100x2 + x73x100x2 + x84x100x2 + x136x100x2 + x176x100x2 + x37x100x2 
- x100x0x2
- x100x116x2 
= 0
x119x100x3 + x82x100x3 + x98x100x3 + x138x100x3 + x90x100x3 + x164x100x3 + x16x100x3 + x90x100x3 + x104x100x3 + x18x100x3 + x136x100x3 + x176x100x3 
- x100x0x3
- x100x166x3 - x100x59x3 - x100x70x3 
= 0


x35x68x2 + x82x68x2 + x98x68x2 + x172x68x2 + x85x68x2 + x16x68x2 + x31x68x2 + x73x68x2 + x84x68x2 + x136x68x2 + x176x68x2 
- x68x0x2
- x68x9x2 - x68x116x2 
= 0
x119x68x3 + x82x68x3 + x98x68x3 + x138x68x3 + x90x68x3 + x164x68x3 + x16x68x3 + x90x68x3 + x104x68x3 + x18x68x3 + x136x68x3 + x176x68x3 
- x68x0x3
- x68x9x3 - x68x59x3 - x68x70x3 
= 0


x35x9x2 + x82x9x2 + x98x9x2 + x172x9x2 + x85x9x2 + x16x9x2 + x31x9x2 + x73x9x2 + x84x9x2 + x136x9x2 + x176x9x2 + x37x9x2 + x68x9x2 
- x9x0x2
- x9x116x2 
= 0
x119x9x3 + x82x9x3 + x98x9x3 + x138x9x3 + x90x9x3 + x164x9x3 + x16x9x3 + x90x9x3 + x104x9x3 + x18x9x3 + x136x9x3 + x176x9x3 + x68x9x3 
- x9x0x3
- x9x59x3 - x9x70x3 
= 0



x119x166x3 + x82x166x3 + x98x166x3 + x138x166x3 + x90x166x3 + x164x166x3 + x16x166x3 + x90x166x3 + x104x166x3 + x18x166x3 + x136x166x3 + x176x166x3 + x100x166x3 
- x166x0x3
- x166x70x3 
= 0


x35x116x2 + x82x116x2 + x98x116x2 + x172x116x2 + x85x116x2 + x16x116x2 + x31x116x2 + x73x116x2 + x84x116x2 + x136x116x2 + x176x116x2 + x37x116x2 + x100x116x2 + x68x116x2 + x9x116x2 
- x116x0x2

= 0


x109x59x1 + x85x59x1 + x118x59x1 + x138x59x1 + x90x59x1 + x164x59x1 + x31x59x1 + x73x59x1 + x77x59x1 + x90x59x1 + x169x59x1 + x37x59x1 
- x59x0x1

= 0

x119x59x3 + x82x59x3 + x98x59x3 + x138x59x3 + x90x59x3 + x164x59x3 + x16x59x3 + x90x59x3 + x104x59x3 + x18x59x3 + x136x59x3 + x176x59x3 + x100x59x3 + x68x59x3 + x9x59x3 
- x59x0x3

= 0

x109x36x1 + x85x36x1 + x118x36x1 + x138x36x1 + x90x36x1 + x164x36x1 + x31x36x1 + x73x36x1 + x77x36x1 + x90x36x1 + x169x36x1 + x37x36x1 
- x36x0x1
- x36x70x1 
= 0



x109x70x1 + x85x70x1 + x118x70x1 + x138x70x1 + x90x70x1 + x164x70x1 + x31x70x1 + x73x70x1 + x77x70x1 + x90x70x1 + x169x70x1 + x37x70x1 + x36x70x1 
- x70x0x1

= 0

x119x70x3 + x82x70x3 + x98x70x3 + x138x70x3 + x90x70x3 + x164x70x3 + x16x70x3 + x90x70x3 + x104x70x3 + x18x70x3 + x136x70x3 + x176x70x3 + x100x70x3 + x68x70x3 + x9x70x3 + x166x70x3 
- x70x0x3

= 0

1y31 - x109x31x1 - x118x31x1 - x138x31x1 - x164x31x1 = 0
1y31 - x35x31x2 - x82x31x2 - x16x31x2 = 0
1y73 - x164x73x1 = 0
1y73 - x16x73x2 = 0
2y77 - x109x77x1 - x164x77x1 = 0
2y84 = 0
1y90 - x109x90x1 - x118x90x1 - x138x90x1 - x164x90x1 = 0
1y90 - x119x90x3 - x82x90x3 - x138x90x3 - x164x90x3 - x16x90x3 = 0
2y169 = 0
2y104 - x119x104x3 - x82x104x3 - x138x104x3 - x90x104x3 - x164x104x3 - x16x104x3 = 0
2y18 - x119x18x3 - x82x18x3 - x138x18x3 - x90x18x3 - x164x18x3 - x16x18x3 - x90x18x3 - x104x18x3 = 0
1y136 - x35x136x2 - x82x136x2 - x98x136x2 - x172x136x2 - x85x136x2 - x16x136x2 - x31x136x2 - x73x136x2 = 0
1y136 - x119x136x3 - x82x136x3 - x98x136x3 - x138x136x3 - x90x136x3 - x164x136x3 - x16x136x3 - x90x136x3 - x104x136x3 = 0
1y176 - x35x176x2 - x82x176x2 - x98x176x2 - x172x176x2 - x85x176x2 - x16x176x2 - x31x176x2 - x73x176x2 - x84x176x2 = 0
1y176 - x119x176x3 - x82x176x3 - x98x176x3 - x138x176x3 - x90x176x3 - x164x176x3 - x16x176x3 - x90x176x3 - x104x176x3 - x18x176x3 = 0
1y37 - x109x37x1 - x85x37x1 - x118x37x1 - x138x37x1 - x90x37x1 - x164x37x1 - x31x37x1 - x73x37x1 - x77x37x1 - x90x37x1 - x169x37x1 = 0
1y37 - x35x37x2 - x82x37x2 - x98x37x2 - x172x37x2 - x85x37x2 - x16x37x2 - x31x37x2 - x73x37x2 - x84x37x2 - x136x37x2 = 0
1y100 - x35x100x2 - x82x100x2 - x98x100x2 - x172x100x2 - x85x100x2 - x16x100x2 - x31x100x2 - x73x100x2 - x84x100x2 - x136x100x2 - x176x100x2 - x37x100x2 = 0
1y100 - x119x100x3 - x82x100x3 - x98x100x3 - x138x100x3 - x90x100x3 - x164x100x3 - x16x100x3 - x90x100x3 - x104x100x3 - x18x100x3 - x136x100x3 - x176x100x3 = 0
1y68 - x35x68x2 - x82x68x2 - x98x68x2 - x172x68x2 - x85x68x2 - x16x68x2 - x31x68x2 - x73x68x2 - x84x68x2 - x136x68x2 - x176x68x2 = 0
1y68 - x119x68x3 - x82x68x3 - x98x68x3 - x138x68x3 - x90x68x3 - x164x68x3 - x16x68x3 - x90x68x3 - x104x68x3 - x18x68x3 - x136x68x3 - x176x68x3 = 0
1y9 - x35x9x2 - x82x9x2 - x98x9x2 - x172x9x2 - x85x9x2 - x16x9x2 - x31x9x2 - x73x9x2 - x84x9x2 - x136x9x2 - x176x9x2 - x37x9x2 - x68x9x2 = 0
1y9 - x119x9x3 - x82x9x3 - x98x9x3 - x138x9x3 - x90x9x3 - x164x9x3 - x16x9x3 - x90x9x3 - x104x9x3 - x18x9x3 - x136x9x3 - x176x9x3 - x68x9x3 = 0
2y166 - x119x166x3 - x82x166x3 - x98x166x3 - x138x166x3 - x90x166x3 - x164x166x3 - x16x166x3 - x90x166x3 - x104x166x3 - x18x166x3 - x136x166x3 - x176x166x3 - x100x166x3 = 0
2y116 - x35x116x2 - x82x116x2 - x98x116x2 - x172x116x2 - x85x116x2 - x16x116x2 - x31x116x2 - x73x116x2 - x84x116x2 - x136x116x2 - x176x116x2 - x37x116x2 - x100x116x2 - x68x116x2 - x9x116x2 = 0
1y59 - x109x59x1 - x85x59x1 - x118x59x1 - x138x59x1 - x90x59x1 - x164x59x1 - x31x59x1 - x73x59x1 - x77x59x1 - x90x59x1 - x169x59x1 - x37x59x1 = 0
1y59 - x119x59x3 - x82x59x3 - x98x59x3 - x138x59x3 - x90x59x3 - x164x59x3 - x16x59x3 - x90x59x3 - x104x59x3 - x18x59x3 - x136x59x3 - x176x59x3 - x100x59x3 - x68x59x3 - x9x59x3 = 0
2y36 - x109x36x1 - x85x36x1 - x118x36x1 - x138x36x1 - x90x36x1 - x164x36x1 - x31x36x1 - x73x36x1 - x77x36x1 - x90x36x1 - x169x36x1 - x37x36x1 = 0
1y70 - x109x70x1 - x85x70x1 - x118x70x1 - x138x70x1 - x90x70x1 - x164x70x1 - x31x70x1 - x73x70x1 - x77x70x1 - x90x70x1 - x169x70x1 - x37x70x1 - x36x70x1 = 0
1y70 - x119x70x3 - x82x70x3 - x98x70x3 - x138x70x3 - x90x70x3 - x164x70x3 - x16x70x3 - x90x70x3 - x104x70x3 - x18x70x3 - x136x70x3 - x176x70x3 - x100x70x3 - x68x70x3 - x9x70x3 - x166x70x3 = 0

s35 - s31 + 6.666166z35z31z2 <= 5.10
s35 - s136 + 6.590407z35z136z2 <= 5.10
s35 - s176 + 6.877386z35z176z2 <= 5.10
s35 - s37 + 6.679534z35z37z2 <= 5.10
s35 - s100 + 6.677412z35z100z2 <= 5.10
s35 - s68 + 6.910661z35z68z2 <= 5.10
s35 - s9 + 6.913352z35z9z2 <= 5.10
s35 - s116 + 6.969954z35z116z2 <= 5.10
s119 - s90 + 6.659101z119z90z3 <= 5.13
s119 - s104 + 6.784557z119z104z3 <= 5.13
s119 - s18 + 6.805634z119z18z3 <= 5.13
s119 - s136 + 6.777061z119z136z3 <= 5.13
s119 - s176 + 6.778969z119z176z3 <= 5.13
s119 - s100 + 6.943757z119z100z3 <= 5.13
s119 - s68 + 6.922318z119z68z3 <= 5.13
s119 - s9 + 7.045602z119z9z3 <= 5.13
s119 - s166 + 7.042141z119z166z3 <= 5.13
s119 - s59 + 7.030428z119z59z3 <= 5.13
s119 - s70 + 7.099141z119z70z3 <= 5.13
s82 - s31 + 6.768033z82z31z2 <= 5.42
s82 - s90 + 6.759032z82z90z3 <= 5.42
s82 - s104 + 6.870182z82z104z3 <= 5.42
s82 - s18 + 6.906963z82z18z3 <= 5.42
s82 - s136 + 6.859027z82z136z2 <= 5.42
s82 - s136 + 6.859027z82z136z3 <= 5.42
s82 - s176 + 6.897090z82z176z2 <= 5.42
s82 - s176 + 6.897090z82z176z3 <= 5.42
s82 - s37 + 6.989201z82z37z2 <= 5.42
s82 - s100 + 7.027045z82z100z2 <= 5.42
s82 - s100 + 7.027045z82z100z3 <= 5.42
s82 - s68 + 7.031534z82z68z2 <= 5.42
s82 - s68 + 7.031534z82z68z3 <= 5.42
s82 - s9 + 7.144067z82z9z2 <= 5.42
s82 - s9 + 7.144067z82z9z3 <= 5.42
s82 - s166 + 7.127449z82z166z3 <= 5.42
s82 - s116 + 7.212526z82z116z2 <= 5.42
s82 - s59 + 7.139910z82z59z3 <= 5.42
s82 - s70 + 7.181919z82z70z3 <= 5.42
s109 - s31 + 6.379705z109z31z1 <= 4.99
s109 - s77 + 6.361575z109z77z1 <= 4.99
s109 - s90 + 6.451309z109z90z1 <= 4.99
s109 - s37 + 6.477040z109z37z1 <= 4.99
s109 - s59 + 6.753456z109z59z1 <= 4.99
s109 - s36 + 6.605737z109z36z1 <= 4.99
s109 - s70 + 6.608022z109z70z1 <= 4.99
s98 - s136 + 7.194735z98z136z2 <= 5.98
s98 - s136 + 7.194735z98z136z3 <= 5.98
s98 - s176 + 7.488658z98z176z2 <= 5.98
s98 - s176 + 7.488658z98z176z3 <= 5.98
s98 - s37 + 7.278927z98z37z2 <= 5.98
s98 - s100 + 7.281255z98z100z2 <= 5.98
s98 - s100 + 7.281255z98z100z3 <= 5.98
s98 - s68 + 7.509505z98z68z2 <= 5.98
s98 - s68 + 7.509505z98z68z3 <= 5.98
s98 - s9 + 7.514306z98z9z2 <= 5.98
s98 - s9 + 7.514306z98z9z3 <= 5.98
s98 - s166 + 7.380269z98z166z3 <= 5.98
s98 - s116 + 7.573658z98z116z2 <= 5.98
s98 - s59 + 7.577866z98z59z3 <= 5.98
s98 - s70 + 7.375527z98z70z3 <= 5.98
s172 - s136 + 6.692408z172z136z2 <= 5.49
s172 - s176 + 6.986033z172z176z2 <= 5.49
s172 - s37 + 6.754375z172z37z2 <= 5.49
s172 - s100 + 6.751131z172z100z2 <= 5.49
s172 - s68 + 6.993746z172z68z2 <= 5.49
s172 - s9 + 6.987054z172z9z2 <= 5.49
s172 - s116 + 7.043885z172z116z2 <= 5.49
s85 - s136 + 7.223583z85z136z2 <= 5.96
s85 - s176 + 7.517256z85z176z2 <= 5.96
s85 - s37 + 7.303937z85z37z1 <= 5.96
s85 - s37 + 7.303937z85z37z2 <= 5.96
s85 - s100 + 7.303101z85z100z2 <= 5.96
s85 - s68 + 7.537671z85z68z2 <= 5.96
s85 - s9 + 7.538207z85z9z2 <= 5.96
s85 - s116 + 7.595978z85z116z2 <= 5.96
s85 - s59 + 7.604148z85z59z1 <= 5.96
s85 - s36 + 7.385772z85z36z1 <= 5.96
s85 - s70 + 7.384888z85z70z1 <= 5.96
s118 - s31 + 6.582517z118z31z1 <= 5.44
s118 - s90 + 6.670169z118z90z1 <= 5.44
s118 - s37 + 6.638214z118z37z1 <= 5.44
s118 - s59 + 6.906714z118z59z1 <= 5.44
s118 - s36 + 6.800000z118z36z1 <= 5.44
s118 - s70 + 6.806909z118z70z1 <= 5.44
s138 - s31 + 6.657573z138z31z1 <= 5.51
s138 - s90 + 6.744473z138z90z1 <= 5.51
s138 - s90 + 6.744473z138z90z3 <= 5.51
s138 - s104 + 6.635256z138z104z3 <= 5.51
s138 - s18 + 6.771449z138z18z3 <= 5.51
s138 - s136 + 6.558074z138z136z3 <= 5.51
s138 - s176 + 6.847573z138z176z3 <= 5.51
s138 - s37 + 6.689506z138z37z1 <= 5.51
s138 - s100 + 6.713961z138z100z3 <= 5.51
s138 - s68 + 6.881723z138z68z3 <= 5.51
s138 - s9 + 6.915353z138z9z3 <= 5.51
s138 - s166 + 6.823830z138z166z3 <= 5.51
s138 - s59 + 6.962941z138z59z1 <= 5.51
s138 - s59 + 6.962941z138z59z3 <= 5.51
s138 - s36 + 6.850000z138z36z1 <= 5.51
s138 - s70 + 6.856923z138z70z1 <= 5.51
s138 - s70 + 6.856923z138z70z3 <= 5.51
s90 - s104 + 7.007308z90z104z3 <= 5.85
s90 - s18 + 6.995054z90z18z3 <= 5.85
s90 - s136 + 7.052835z90z136z3 <= 5.85
s90 - s176 + 7.002665z90z176z3 <= 5.85
s90 - s37 + 7.124479z90z37z1 <= 5.85
s90 - s100 + 7.167099z90z100z3 <= 5.85
s90 - s68 + 7.121094z90z68z3 <= 5.85
s90 - s9 + 7.233927z90z9z3 <= 5.85
s90 - s166 + 7.247086z90z166z3 <= 5.85
s90 - s59 + 7.228897z90z59z1 <= 5.85
s90 - s59 + 7.228897z90z59z3 <= 5.85
s90 - s36 + 7.306788z90z36z1 <= 5.85
s90 - s70 + 7.319235z90z70z1 <= 5.85
s90 - s70 + 7.319235z90z70z3 <= 5.85
s164 - s31 + 6.223524z164z31z1 <= 4.80
s164 - s73 + 6.103703z164z73z1 <= 4.80
s164 - s77 + 6.137781z164z77z1 <= 4.80
s164 - s90 + 6.235853z164z90z1 <= 4.80
s164 - s90 + 6.235853z164z90z3 <= 4.80
s164 - s104 + 6.318616z164z104z3 <= 4.80
s164 - s18 + 6.380178z164z18z3 <= 4.80
s164 - s136 + 6.289598z164z136z3 <= 4.80
s164 - s176 + 6.384089z164z176z3 <= 4.80
s164 - s37 + 6.429222z164z37z1 <= 4.80
s164 - s100 + 6.462823z164z100z3 <= 4.80
s164 - s68 + 6.509470z164z68z3 <= 4.80
s164 - s9 + 6.609517z164z9z3 <= 4.80
s164 - s166 + 6.569216z164z166z3 <= 4.80
s164 - s59 + 6.616454z164z59z1 <= 4.80
s164 - s59 + 6.616454z164z59z3 <= 4.80
s164 - s36 + 6.604767z164z36z1 <= 4.80
s164 - s70 + 6.612513z164z70z1 <= 4.80
s164 - s70 + 6.612513z164z70z3 <= 4.80
s16 - s31 + 6.376084z16z31z2 <= 4.86
s16 - s73 + 6.231170z16z73z2 <= 4.86
s16 - s90 + 6.366734z16z90z3 <= 4.86
s16 - s104 + 6.477454z16z104z3 <= 4.86
s16 - s18 + 6.514757z16z18z3 <= 4.86
s16 - s136 + 6.461046z16z136z2 <= 4.86
s16 - s136 + 6.461046z16z136z3 <= 4.86
s16 - s176 + 6.499474z16z176z2 <= 4.86
s16 - s176 + 6.499474z16z176z3 <= 4.86
s16 - s37 + 6.594949z16z37z2 <= 4.86
s16 - s100 + 6.631701z16z100z2 <= 4.86
s16 - s100 + 6.631701z16z100z3 <= 4.86
s16 - s68 + 6.637549z16z68z2 <= 4.86
s16 - s68 + 6.637549z16z68z3 <= 4.86
s16 - s9 + 6.752608z16z9z2 <= 4.86
s16 - s9 + 6.752608z16z9z3 <= 4.86
s16 - s166 + 6.734006z16z166z3 <= 4.86
s16 - s116 + 6.820894z16z116z2 <= 4.86
s16 - s59 + 6.746068z16z59z3 <= 4.86
s16 - s70 + 6.785336z16z70z3 <= 4.86
s31 - s136 + 7.904007z31z136z2 <= 6.78
s31 - s176 + 7.997664z31z176z2 <= 6.78
s31 - s37 + 8.005586z31z37z1 <= 6.78
s31 - s37 + 8.005586z31z37z2 <= 6.78
s31 - s100 + 8.046166z31z100z2 <= 6.78
s31 - s68 + 8.081478z31z68z2 <= 6.78
s31 - s9 + 8.166494z31z9z2 <= 6.78
s31 - s116 + 8.236071z31z116z2 <= 6.78
s31 - s59 + 8.182768z31z59z1 <= 6.78
s31 - s36 + 8.191232z31z36z1 <= 6.78
s31 - s70 + 8.202164z31z70z1 <= 6.78
s73 - s136 + 7.572030z73z136z2 <= 6.30
s73 - s176 + 7.580397z73z176z2 <= 6.30
s73 - s37 + 7.683898z73z37z1 <= 6.30
s73 - s37 + 7.683898z73z37z2 <= 6.30
s73 - s100 + 7.724631z73z100z2 <= 6.30
s73 - s68 + 7.709336z73z68z2 <= 6.30
s73 - s9 + 7.821537z73z9z2 <= 6.30
s73 - s116 + 7.889727z73z116z2 <= 6.30
s73 - s59 + 7.817472z73z59z1 <= 6.30
s73 - s36 + 7.869600z73z36z1 <= 6.30
s73 - s70 + 7.880613z73z70z1 <= 6.30
s77 - s37 + 7.780555z77z37z1 <= 6.46
s77 - s59 + 7.939119z77z59z1 <= 6.46
s77 - s36 + 7.965964z77z36z1 <= 6.46
s77 - s70 + 7.976613z77z70z1 <= 6.46
s84 - s176 + 7.392073z84z176z2 <= 6.04
s84 - s37 + 7.512252z84z37z2 <= 6.04
s84 - s100 + 7.552640z84z100z2 <= 6.04
s84 - s68 + 7.528990z84z68z2 <= 6.04
s84 - s9 + 7.646996z84z9z2 <= 6.04
s84 - s116 + 7.714520z84z116z2 <= 6.04
s90 - s18 + 7.918024z90z18z3 <= 6.77
s90 - s136 + 7.975805z90z136z3 <= 6.77
s90 - s176 + 7.925635z90z176z3 <= 6.77
s90 - s37 + 8.047449z90z37z1 <= 6.77
s90 - s100 + 8.090070z90z100z3 <= 6.77
s90 - s68 + 8.044064z90z68z3 <= 6.77
s90 - s9 + 8.156897z90z9z3 <= 6.77
s90 - s166 + 8.170055z90z166z3 <= 6.77
s90 - s59 + 8.151867z90z59z1 <= 6.77
s90 - s59 + 8.151867z90z59z3 <= 6.77
s90 - s36 + 8.229758z90z36z1 <= 6.77
s90 - s70 + 8.242206z90z70z1 <= 6.77
s90 - s70 + 8.242206z90z70z3 <= 6.77
s169 - s37 + 7.474459z169z37z1 <= 6.00
s169 - s59 + 7.606703z169z59z1 <= 6.00
s169 - s36 + 7.659865z169z36z1 <= 6.00
s169 - s70 + 7.670456z169z70z1 <= 6.00
s104 - s18 + 8.287437z104z18z3 <= 7.15
s104 - s136 + 8.228031z104z136z3 <= 7.15
s104 - s176 + 8.370000z104z176z3 <= 7.15
s104 - s100 + 8.313978z104z100z3 <= 7.15
s104 - s68 + 8.398014z104z68z3 <= 7.15
s104 - s9 + 8.451257z104z9z3 <= 7.15
s104 - s166 + 8.407596z104z166z3 <= 7.15
s104 - s59 + 8.485526z104z59z3 <= 7.15
s104 - s70 + 8.469514z104z70z3 <= 7.15
s18 - s176 + 8.382856z18z176z3 <= 7.29
s18 - s100 + 8.525702z18z100z3 <= 7.29
s18 - s68 + 8.421487z18z68z3 <= 7.29
s18 - s9 + 8.530092z18z9z3 <= 7.29
s18 - s166 + 8.574253z18z166z3 <= 7.29
s18 - s59 + 8.526455z18z59z3 <= 7.29
s18 - s70 + 8.657696z18z70z3 <= 7.29
s136 - s37 + 8.452517z136z37z2 <= 7.31
s136 - s100 + 8.483334z136z100z2 <= 7.31
s136 - s100 + 8.483334z136z100z3 <= 7.31
s136 - s68 + 8.633659z136z68z2 <= 7.31
s136 - s68 + 8.633659z136z68z3 <= 7.31
s136 - s9 + 8.670555z136z9z2 <= 7.31
s136 - s9 + 8.670555z136z9z3 <= 7.31
s136 - s166 + 8.591267z136z166z3 <= 7.31
s136 - s116 + 8.737603z136z116z2 <= 7.31
s136 - s59 + 8.715517z136z59z3 <= 7.31
s136 - s70 + 8.634414z136z70z3 <= 7.31
s176 - s100 + 8.857957z176z100z2 <= 7.53
s176 - s100 + 8.857957z176z100z3 <= 7.53
s176 - s68 + 8.678024z176z68z2 <= 7.53
s176 - s68 + 8.678024z176z68z3 <= 7.53
s176 - s9 + 8.818830z176z9z2 <= 7.53
s176 - s9 + 8.818830z176z9z3 <= 7.53
s176 - s166 + 8.897817z176z166z3 <= 7.53
s176 - s116 + 8.877819z176z116z2 <= 7.53
s176 - s59 + 8.783334z176z59z3 <= 7.53
s176 - s70 + 8.984118z176z70z3 <= 7.53
s37 - s100 + 8.692688z37z100z2 <= 7.65
s37 - s9 + 8.885891z37z9z2 <= 7.65
s37 - s116 + 8.947919z37z116z2 <= 7.65
s37 - s59 + 8.951183z37z59z1 <= 7.65
s37 - s36 + 8.835712z37z36z1 <= 7.65
s37 - s70 + 8.846977z37z70z1 <= 7.65
s100 - s166 + 8.969950z100z166z3 <= 7.86
s100 - s116 + 9.152879z100z116z2 <= 7.86
s100 - s59 + 9.172126z100z59z3 <= 7.86
s100 - s70 + 9.016063z100z70z3 <= 7.86
s68 - s9 + 9.036364z68z9z2 <= 7.89
s68 - s9 + 9.036364z68z9z3 <= 7.89
s68 - s116 + 9.090555z68z116z2 <= 7.89
s68 - s59 + 8.998526z68z59z3 <= 7.89
s68 - s70 + 9.248081z68z70z3 <= 7.89
s9 - s116 + 9.119602z9z116z2 <= 8.05
s9 - s59 + 9.145452z9z59z3 <= 8.05
s9 - s70 + 9.304122z9z70z3 <= 8.05
s166 - s70 + 9.179443z166z70z3 <= 8.09
s36 - s70 + 9.504907z36z70z1 <= 8.49

x35x31x2 - 1z35z31z2 <= 0
x35x136x2 - 1z35z136z2 <= 0
x35x176x2 - 1z35z176z2 <= 0
x35x37x2 - 1z35z37z2 <= 0
x35x100x2 - 1z35z100z2 <= 0
x35x68x2 - 1z35z68z2 <= 0
x35x9x2 - 1z35z9z2 <= 0
x35x116x2 - 2z35z116z2 <= 0
x119x90x3 - 1z119z90z3 <= 0
x119x104x3 - 2z119z104z3 <= 0
x119x18x3 - 2z119z18z3 <= 0
x119x136x3 - 1z119z136z3 <= 0
x119x176x3 - 1z119z176z3 <= 0
x119x100x3 - 1z119z100z3 <= 0
x119x68x3 - 1z119z68z3 <= 0
x119x9x3 - 1z119z9z3 <= 0
x119x166x3 - 2z119z166z3 <= 0
x119x59x3 - 1z119z59z3 <= 0
x119x70x3 - 1z119z70z3 <= 0
x82x31x2 - 1z82z31z2 <= 0
x82x90x3 - 1z82z90z3 <= 0
x82x104x3 - 2z82z104z3 <= 0
x82x18x3 - 2z82z18z3 <= 0
x82x136x2 - 1z82z136z2 <= 0
x82x136x3 - 1z82z136z3 <= 0
x82x176x2 - 1z82z176z2 <= 0
x82x176x3 - 1z82z176z3 <= 0
x82x37x2 - 1z82z37z2 <= 0
x82x100x2 - 1z82z100z2 <= 0
x82x100x3 - 1z82z100z3 <= 0
x82x68x2 - 1z82z68z2 <= 0
x82x68x3 - 1z82z68z3 <= 0
x82x9x2 - 1z82z9z2 <= 0
x82x9x3 - 1z82z9z3 <= 0
x82x166x3 - 2z82z166z3 <= 0
x82x116x2 - 2z82z116z2 <= 0
x82x59x3 - 1z82z59z3 <= 0
x82x70x3 - 1z82z70z3 <= 0
x109x31x1 - 1z109z31z1 <= 0
x109x77x1 - 2z109z77z1 <= 0
x109x90x1 - 1z109z90z1 <= 0
x109x37x1 - 1z109z37z1 <= 0
x109x59x1 - 1z109z59z1 <= 0
x109x36x1 - 2z109z36z1 <= 0
x109x70x1 - 1z109z70z1 <= 0
x98x136x2 - 1z98z136z2 <= 0
x98x136x3 - 1z98z136z3 <= 0
x98x176x2 - 1z98z176z2 <= 0
x98x176x3 - 1z98z176z3 <= 0
x98x37x2 - 1z98z37z2 <= 0
x98x100x2 - 1z98z100z2 <= 0
x98x100x3 - 1z98z100z3 <= 0
x98x68x2 - 1z98z68z2 <= 0
x98x68x3 - 1z98z68z3 <= 0
x98x9x2 - 1z98z9z2 <= 0
x98x9x3 - 1z98z9z3 <= 0
x98x166x3 - 2z98z166z3 <= 0
x98x116x2 - 2z98z116z2 <= 0
x98x59x3 - 1z98z59z3 <= 0
x98x70x3 - 1z98z70z3 <= 0
x172x136x2 - 1z172z136z2 <= 0
x172x176x2 - 1z172z176z2 <= 0
x172x37x2 - 1z172z37z2 <= 0
x172x100x2 - 1z172z100z2 <= 0
x172x68x2 - 1z172z68z2 <= 0
x172x9x2 - 1z172z9z2 <= 0
x172x116x2 - 2z172z116z2 <= 0
x85x136x2 - 1z85z136z2 <= 0
x85x176x2 - 1z85z176z2 <= 0
x85x37x1 - 1z85z37z1 <= 0
x85x37x2 - 1z85z37z2 <= 0
x85x100x2 - 1z85z100z2 <= 0
x85x68x2 - 1z85z68z2 <= 0
x85x9x2 - 1z85z9z2 <= 0
x85x116x2 - 2z85z116z2 <= 0
x85x59x1 - 1z85z59z1 <= 0
x85x36x1 - 2z85z36z1 <= 0
x85x70x1 - 1z85z70z1 <= 0
x118x31x1 - 1z118z31z1 <= 0
x118x90x1 - 1z118z90z1 <= 0
x118x37x1 - 1z118z37z1 <= 0
x118x59x1 - 1z118z59z1 <= 0
x118x36x1 - 2z118z36z1 <= 0
x118x70x1 - 1z118z70z1 <= 0
x138x31x1 - 1z138z31z1 <= 0
x138x90x1 - 1z138z90z1 <= 0
x138x90x3 - 1z138z90z3 <= 0
x138x104x3 - 2z138z104z3 <= 0
x138x18x3 - 2z138z18z3 <= 0
x138x136x3 - 1z138z136z3 <= 0
x138x176x3 - 1z138z176z3 <= 0
x138x37x1 - 1z138z37z1 <= 0
x138x100x3 - 1z138z100z3 <= 0
x138x68x3 - 1z138z68z3 <= 0
x138x9x3 - 1z138z9z3 <= 0
x138x166x3 - 2z138z166z3 <= 0
x138x59x1 - 1z138z59z1 <= 0
x138x59x3 - 1z138z59z3 <= 0
x138x36x1 - 2z138z36z1 <= 0
x138x70x1 - 1z138z70z1 <= 0
x138x70x3 - 1z138z70z3 <= 0
x90x104x3 - 2z90z104z3 <= 0
x90x18x3 - 2z90z18z3 <= 0
x90x136x3 - 1z90z136z3 <= 0
x90x176x3 - 1z90z176z3 <= 0
x90x37x1 - 1z90z37z1 <= 0
x90x100x3 - 1z90z100z3 <= 0
x90x68x3 - 1z90z68z3 <= 0
x90x9x3 - 1z90z9z3 <= 0
x90x166x3 - 2z90z166z3 <= 0
x90x59x1 - 1z90z59z1 <= 0
x90x59x3 - 1z90z59z3 <= 0
x90x36x1 - 2z90z36z1 <= 0
x90x70x1 - 1z90z70z1 <= 0
x90x70x3 - 1z90z70z3 <= 0
x164x31x1 - 1z164z31z1 <= 0
x164x73x1 - 1z164z73z1 <= 0
x164x77x1 - 2z164z77z1 <= 0
x164x90x1 - 1z164z90z1 <= 0
x164x90x3 - 1z164z90z3 <= 0
x164x104x3 - 2z164z104z3 <= 0
x164x18x3 - 2z164z18z3 <= 0
x164x136x3 - 1z164z136z3 <= 0
x164x176x3 - 1z164z176z3 <= 0
x164x37x1 - 1z164z37z1 <= 0
x164x100x3 - 1z164z100z3 <= 0
x164x68x3 - 1z164z68z3 <= 0
x164x9x3 - 1z164z9z3 <= 0
x164x166x3 - 2z164z166z3 <= 0
x164x59x1 - 1z164z59z1 <= 0
x164x59x3 - 1z164z59z3 <= 0
x164x36x1 - 2z164z36z1 <= 0
x164x70x1 - 1z164z70z1 <= 0
x164x70x3 - 1z164z70z3 <= 0
x16x31x2 - 1z16z31z2 <= 0
x16x73x2 - 1z16z73z2 <= 0
x16x90x3 - 1z16z90z3 <= 0
x16x104x3 - 2z16z104z3 <= 0
x16x18x3 - 2z16z18z3 <= 0
x16x136x2 - 1z16z136z2 <= 0
x16x136x3 - 1z16z136z3 <= 0
x16x176x2 - 1z16z176z2 <= 0
x16x176x3 - 1z16z176z3 <= 0
x16x37x2 - 1z16z37z2 <= 0
x16x100x2 - 1z16z100z2 <= 0
x16x100x3 - 1z16z100z3 <= 0
x16x68x2 - 1z16z68z2 <= 0
x16x68x3 - 1z16z68z3 <= 0
x16x9x2 - 1z16z9z2 <= 0
x16x9x3 - 1z16z9z3 <= 0
x16x166x3 - 2z16z166z3 <= 0
x16x116x2 - 2z16z116z2 <= 0
x16x59x3 - 1z16z59z3 <= 0
x16x70x3 - 1z16z70z3 <= 0
x31x136x2 - 1z31z136z2 <= 0
x31x176x2 - 1z31z176z2 <= 0
x31x37x1 - 1z31z37z1 <= 0
x31x37x2 - 1z31z37z2 <= 0
x31x100x2 - 1z31z100z2 <= 0
x31x68x2 - 1z31z68z2 <= 0
x31x9x2 - 1z31z9z2 <= 0
x31x116x2 - 2z31z116z2 <= 0
x31x59x1 - 1z31z59z1 <= 0
x31x36x1 - 2z31z36z1 <= 0
x31x70x1 - 1z31z70z1 <= 0
x31x0x1 <= 1
x31x0x2 <= 1
x73x136x2 - 1z73z136z2 <= 0
x73x176x2 - 1z73z176z2 <= 0
x73x37x1 - 1z73z37z1 <= 0
x73x37x2 - 1z73z37z2 <= 0
x73x100x2 - 1z73z100z2 <= 0
x73x68x2 - 1z73z68z2 <= 0
x73x9x2 - 1z73z9z2 <= 0
x73x116x2 - 2z73z116z2 <= 0
x73x59x1 - 1z73z59z1 <= 0
x73x36x1 - 2z73z36z1 <= 0
x73x70x1 - 1z73z70z1 <= 0
x73x0x1 <= 1
x73x0x2 <= 1
x77x37x1 - 1z77z37z1 <= 0
x77x59x1 - 1z77z59z1 <= 0
x77x36x1 - 2z77z36z1 <= 0
x77x70x1 - 1z77z70z1 <= 0
x77x0x1 <= 2
x84x176x2 - 1z84z176z2 <= 0
x84x37x2 - 1z84z37z2 <= 0
x84x100x2 - 1z84z100z2 <= 0
x84x68x2 - 1z84z68z2 <= 0
x84x9x2 - 1z84z9z2 <= 0
x84x116x2 - 2z84z116z2 <= 0
x84x0x2 <= 2
x90x18x3 - 2z90z18z3 <= 0
x90x136x3 - 1z90z136z3 <= 0
x90x176x3 - 1z90z176z3 <= 0
x90x37x1 - 1z90z37z1 <= 0
x90x100x3 - 1z90z100z3 <= 0
x90x68x3 - 1z90z68z3 <= 0
x90x9x3 - 1z90z9z3 <= 0
x90x166x3 - 2z90z166z3 <= 0
x90x59x1 - 1z90z59z1 <= 0
x90x59x3 - 1z90z59z3 <= 0
x90x36x1 - 2z90z36z1 <= 0
x90x70x1 - 1z90z70z1 <= 0
x90x70x3 - 1z90z70z3 <= 0
x90x0x1 <= 1
x90x0x3 <= 1
x169x37x1 - 1z169z37z1 <= 0
x169x59x1 - 1z169z59z1 <= 0
x169x36x1 - 2z169z36z1 <= 0
x169x70x1 - 1z169z70z1 <= 0
x169x0x1 <= 2
x104x18x3 - 2z104z18z3 <= 0
x104x136x3 - 1z104z136z3 <= 0
x104x176x3 - 1z104z176z3 <= 0
x104x100x3 - 1z104z100z3 <= 0
x104x68x3 - 1z104z68z3 <= 0
x104x9x3 - 1z104z9z3 <= 0
x104x166x3 - 2z104z166z3 <= 0
x104x59x3 - 1z104z59z3 <= 0
x104x70x3 - 1z104z70z3 <= 0
x104x0x3 <= 2
x18x176x3 - 1z18z176z3 <= 0
x18x100x3 - 1z18z100z3 <= 0
x18x68x3 - 1z18z68z3 <= 0
x18x9x3 - 1z18z9z3 <= 0
x18x166x3 - 2z18z166z3 <= 0
x18x59x3 - 1z18z59z3 <= 0
x18x70x3 - 1z18z70z3 <= 0
x18x0x3 <= 2
x136x37x2 - 1z136z37z2 <= 0
x136x100x2 - 1z136z100z2 <= 0
x136x100x3 - 1z136z100z3 <= 0
x136x68x2 - 1z136z68z2 <= 0
x136x68x3 - 1z136z68z3 <= 0
x136x9x2 - 1z136z9z2 <= 0
x136x9x3 - 1z136z9z3 <= 0
x136x166x3 - 2z136z166z3 <= 0
x136x116x2 - 2z136z116z2 <= 0
x136x59x3 - 1z136z59z3 <= 0
x136x70x3 - 1z136z70z3 <= 0
x136x0x2 <= 1
x136x0x3 <= 1
x176x100x2 - 1z176z100z2 <= 0
x176x100x3 - 1z176z100z3 <= 0
x176x68x2 - 1z176z68z2 <= 0
x176x68x3 - 1z176z68z3 <= 0
x176x9x2 - 1z176z9z2 <= 0
x176x9x3 - 1z176z9z3 <= 0
x176x166x3 - 2z176z166z3 <= 0
x176x116x2 - 2z176z116z2 <= 0
x176x59x3 - 1z176z59z3 <= 0
x176x70x3 - 1z176z70z3 <= 0
x176x0x2 <= 1
x176x0x3 <= 1
x37x100x2 - 1z37z100z2 <= 0
x37x9x2 - 1z37z9z2 <= 0
x37x116x2 - 2z37z116z2 <= 0
x37x59x1 - 1z37z59z1 <= 0
x37x36x1 - 2z37z36z1 <= 0
x37x70x1 - 1z37z70z1 <= 0
x37x0x1 <= 1
x37x0x2 <= 1
x100x166x3 - 2z100z166z3 <= 0
x100x116x2 - 2z100z116z2 <= 0
x100x59x3 - 1z100z59z3 <= 0
x100x70x3 - 1z100z70z3 <= 0
x100x0x2 <= 1
x100x0x3 <= 1
x68x9x2 - 1z68z9z2 <= 0
x68x9x3 - 1z68z9z3 <= 0
x68x116x2 - 2z68z116z2 <= 0
x68x59x3 - 1z68z59z3 <= 0
x68x70x3 - 1z68z70z3 <= 0
x68x0x2 <= 1
x68x0x3 <= 1
x9x116x2 - 2z9z116z2 <= 0
x9x59x3 - 1z9z59z3 <= 0
x9x70x3 - 1z9z70z3 <= 0
x9x0x2 <= 1
x9x0x3 <= 1
x166x70x3 - 1z166z70z3 <= 0
x166x0x3 <= 2
x116x0x2 <= 2
x59x0x1 <= 1
x59x0x3 <= 1
x36x70x1 - 1z36z70z1 <= 0
x36x0x1 <= 2
x70x0x1 <= 1
x70x0x3 <= 1

Bounds
s35 = 5.102646
s119 = 5.125602
s82 = 5.420342
s109 = 4.994363
s98 = 5.984233
s172 = 5.485634
s85 = 5.958169
s118 = 5.440000
s138 = 5.510000
s90 = 5.847030
s164 = 4.802520
s16 = 4.855700
6.000000 <= s31 <= 6.780000
6.000000 <= s73 <= 6.300000
6.000000 <= s77 <= 6.460000
6.000000 <= s84 <= 6.040000
6.000000 <= s90 <= 6.770000
6.000000 <= s169 <= 6.000000
6.150000 <= s104 <= 7.150000
6.290000 <= s18 <= 7.290000
6.310000 <= s136 <= 7.310000
6.530000 <= s176 <= 7.530000
6.650000 <= s37 <= 7.650000
6.860000 <= s100 <= 7.860000
6.890000 <= s68 <= 7.890000
7.050000 <= s9 <= 8.050000
7.090000 <= s166 <= 8.090000
7.310000 <= s116 <= 8.310000
7.320000 <= s59 <= 8.320000
7.490000 <= s36 <= 8.490000
7.580000 <= s70 <= 8.580000

General
x35x31x2 x35x136x2 x35x176x2 x35x37x2 x35x100x2 x35x68x2 x35x9x2 x35x116x2 
x119x90x3 x119x104x3 x119x18x3 x119x136x3 x119x176x3 x119x100x3 x119x68x3 x119x9x3 x119x166x3 x119x59x3 x119x70x3 
x82x31x2 x82x90x3 x82x104x3 x82x18x3 x82x136x2 x82x136x3 x82x176x2 x82x176x3 x82x37x2 x82x100x2 x82x100x3 x82x68x2 x82x68x3 x82x9x2 x82x9x3 x82x166x3 x82x116x2 x82x59x3 x82x70x3 
x109x31x1 x109x77x1 x109x90x1 x109x37x1 x109x59x1 x109x36x1 x109x70x1 
x98x136x2 x98x136x3 x98x176x2 x98x176x3 x98x37x2 x98x100x2 x98x100x3 x98x68x2 x98x68x3 x98x9x2 x98x9x3 x98x166x3 x98x116x2 x98x59x3 x98x70x3 
x172x136x2 x172x176x2 x172x37x2 x172x100x2 x172x68x2 x172x9x2 x172x116x2 
x85x136x2 x85x176x2 x85x37x1 x85x37x2 x85x100x2 x85x68x2 x85x9x2 x85x116x2 x85x59x1 x85x36x1 x85x70x1 
x118x31x1 x118x90x1 x118x37x1 x118x59x1 x118x36x1 x118x70x1 
x138x31x1 x138x90x1 x138x90x3 x138x104x3 x138x18x3 x138x136x3 x138x176x3 x138x37x1 x138x100x3 x138x68x3 x138x9x3 x138x166x3 x138x59x1 x138x59x3 x138x36x1 x138x70x1 x138x70x3 
x90x104x3 x90x18x3 x90x136x3 x90x176x3 x90x37x1 x90x100x3 x90x68x3 x90x9x3 x90x166x3 x90x59x1 x90x59x3 x90x36x1 x90x70x1 x90x70x3 
x164x31x1 x164x73x1 x164x77x1 x164x90x1 x164x90x3 x164x104x3 x164x18x3 x164x136x3 x164x176x3 x164x37x1 x164x100x3 x164x68x3 x164x9x3 x164x166x3 x164x59x1 x164x59x3 x164x36x1 x164x70x1 x164x70x3 
x16x31x2 x16x73x2 x16x90x3 x16x104x3 x16x18x3 x16x136x2 x16x136x3 x16x176x2 x16x176x3 x16x37x2 x16x100x2 x16x100x3 x16x68x2 x16x68x3 x16x9x2 x16x9x3 x16x166x3 x16x116x2 x16x59x3 x16x70x3 
x31x136x2 x31x176x2 x31x37x1 x31x37x2 x31x100x2 x31x68x2 x31x9x2 x31x116x2 x31x59x1 x31x36x1 x31x70x1 x31x0x1 x31x0x2 
x73x136x2 x73x176x2 x73x37x1 x73x37x2 x73x100x2 x73x68x2 x73x9x2 x73x116x2 x73x59x1 x73x36x1 x73x70x1 x73x0x1 x73x0x2 
x77x37x1 x77x59x1 x77x36x1 x77x70x1 x77x0x1 
x84x176x2 x84x37x2 x84x100x2 x84x68x2 x84x9x2 x84x116x2 x84x0x2 
x90x18x3 x90x136x3 x90x176x3 x90x37x1 x90x100x3 x90x68x3 x90x9x3 x90x166x3 x90x59x1 x90x59x3 x90x36x1 x90x70x1 x90x70x3 x90x0x1 x90x0x3 
x169x37x1 x169x59x1 x169x36x1 x169x70x1 x169x0x1 
x104x18x3 x104x136x3 x104x176x3 x104x100x3 x104x68x3 x104x9x3 x104x166x3 x104x59x3 x104x70x3 x104x0x3 
x18x176x3 x18x100x3 x18x68x3 x18x9x3 x18x166x3 x18x59x3 x18x70x3 x18x0x3 
x136x37x2 x136x100x2 x136x100x3 x136x68x2 x136x68x3 x136x9x2 x136x9x3 x136x166x3 x136x116x2 x136x59x3 x136x70x3 x136x0x2 x136x0x3 
x176x100x2 x176x100x3 x176x68x2 x176x68x3 x176x9x2 x176x9x3 x176x166x3 x176x116x2 x176x59x3 x176x70x3 x176x0x2 x176x0x3 
x37x100x2 x37x9x2 x37x116x2 x37x59x1 x37x36x1 x37x70x1 x37x0x1 x37x0x2 
x100x166x3 x100x116x2 x100x59x3 x100x70x3 x100x0x2 x100x0x3 
x68x9x2 x68x9x3 x68x116x2 x68x59x3 x68x70x3 x68x0x2 x68x0x3 
x9x116x2 x9x59x3 x9x70x3 x9x0x2 x9x0x3 
x166x70x3 x166x0x3 
x116x0x2 
x59x0x1 x59x0x3 
x36x70x1 x36x0x1 
x70x0x1 x70x0x3 

Binaries
y31 y73 y77 y84 y90 y169 y104 y18 y136 y176 y37 y100 y68 y9 y166 y116 y59 y36 y70 
z35z31z2 z35z136z2 z35z176z2 z35z37z2 z35z100z2 z35z68z2 z35z9z2 z35z116z2 
z119z90z3 z119z104z3 z119z18z3 z119z136z3 z119z176z3 z119z100z3 z119z68z3 z119z9z3 z119z166z3 z119z59z3 z119z70z3 
z82z31z2 z82z90z3 z82z104z3 z82z18z3 z82z136z2 z82z136z3 z82z176z2 z82z176z3 z82z37z2 z82z100z2 z82z100z3 z82z68z2 z82z68z3 z82z9z2 z82z9z3 z82z166z3 z82z116z2 z82z59z3 z82z70z3 
z109z31z1 z109z77z1 z109z90z1 z109z37z1 z109z59z1 z109z36z1 z109z70z1 
z98z136z2 z98z136z3 z98z176z2 z98z176z3 z98z37z2 z98z100z2 z98z100z3 z98z68z2 z98z68z3 z98z9z2 z98z9z3 z98z166z3 z98z116z2 z98z59z3 z98z70z3 
z172z136z2 z172z176z2 z172z37z2 z172z100z2 z172z68z2 z172z9z2 z172z116z2 
z85z136z2 z85z176z2 z85z37z1 z85z37z2 z85z100z2 z85z68z2 z85z9z2 z85z116z2 z85z59z1 z85z36z1 z85z70z1 
z118z31z1 z118z90z1 z118z37z1 z118z59z1 z118z36z1 z118z70z1 
z138z31z1 z138z90z1 z138z90z3 z138z104z3 z138z18z3 z138z136z3 z138z176z3 z138z37z1 z138z100z3 z138z68z3 z138z9z3 z138z166z3 z138z59z1 z138z59z3 z138z36z1 z138z70z1 z138z70z3 
z90z104z3 z90z18z3 z90z136z3 z90z176z3 z90z37z1 z90z100z3 z90z68z3 z90z9z3 z90z166z3 z90z59z1 z90z59z3 z90z36z1 z90z70z1 z90z70z3 
z164z31z1 z164z73z1 z164z77z1 z164z90z1 z164z90z3 z164z104z3 z164z18z3 z164z136z3 z164z176z3 z164z37z1 z164z100z3 z164z68z3 z164z9z3 z164z166z3 z164z59z1 z164z59z3 z164z36z1 z164z70z1 z164z70z3 
z16z31z2 z16z73z2 z16z90z3 z16z104z3 z16z18z3 z16z136z2 z16z136z3 z16z176z2 z16z176z3 z16z37z2 z16z100z2 z16z100z3 z16z68z2 z16z68z3 z16z9z2 z16z9z3 z16z166z3 z16z116z2 z16z59z3 z16z70z3 
z31z136z2 z31z176z2 z31z37z1 z31z37z2 z31z100z2 z31z68z2 z31z9z2 z31z116z2 z31z59z1 z31z36z1 z31z70z1 
z73z136z2 z73z176z2 z73z37z1 z73z37z2 z73z100z2 z73z68z2 z73z9z2 z73z116z2 z73z59z1 z73z36z1 z73z70z1 
z77z37z1 z77z59z1 z77z36z1 z77z70z1 
z84z176z2 z84z37z2 z84z100z2 z84z68z2 z84z9z2 z84z116z2 
z90z18z3 z90z136z3 z90z176z3 z90z37z1 z90z100z3 z90z68z3 z90z9z3 z90z166z3 z90z59z1 z90z59z3 z90z36z1 z90z70z1 z90z70z3 
z169z37z1 z169z59z1 z169z36z1 z169z70z1 
z104z18z3 z104z136z3 z104z176z3 z104z100z3 z104z68z3 z104z9z3 z104z166z3 z104z59z3 z104z70z3 
z18z176z3 z18z100z3 z18z68z3 z18z9z3 z18z166z3 z18z59z3 z18z70z3 
z136z37z2 z136z100z2 z136z100z3 z136z68z2 z136z68z3 z136z9z2 z136z9z3 z136z166z3 z136z116z2 z136z59z3 z136z70z3 
z176z100z2 z176z100z3 z176z68z2 z176z68z3 z176z9z2 z176z9z3 z176z166z3 z176z116z2 z176z59z3 z176z70z3 
z37z100z2 z37z9z2 z37z116z2 z37z59z1 z37z36z1 z37z70z1 
z100z166z3 z100z116z2 z100z59z3 z100z70z3 
z68z9z2 z68z9z3 z68z116z2 z68z59z3 z68z70z3 
z9z116z2 z9z59z3 z9z70z3 
z166z70z3 


z36z70z1 


End